data;

param W := 30;
param discount = 0.9;

param constants:=
	high 1 	8
	high 2 10
	low	 1  0
	low  2  2;

param  S:=
		low 1    0
		high 1   8
		low 2	 10
     	high 2	 50;

/*

param  S:=
		low 1    0
		high 1   8
		low 2	 10
     	high 2	 50;
     	
     	param:  s1:=
		low     0
		high    8
;
		
param: s2:=
	 low 10
     high 50
;
*/
